autocmd BufNewFile,BufRead INCAR setfiletype INCAR
